p edge 640 2624
c 12286
e 0 377 2 0
e 0 105 1 1
e 0 326 23 3
e 0 49 1 4
e 0 164 1 5
e 0 429 1 6
e 1 372 1 7
e 1 399 30 10
e 1 7 8 11
e 1 75 20 14
e 1 107 1 16
e 2 362 1 18
e 2 108 1 20
e 2 377 1 24
e 2 412 1 25
e 2 421 1 26
e 3 388 10 27
e 3 204 1 30
e 3 524 1 33
e 4 382 1 34
e 4 104 1 35
e 4 86 2 36
e 4 560 1 37
e 4 284 1 38
e 5 236 2 41
e 6 290 1 46
e 6 58 12 50
e 6 189 42 51
e 6 217 1 53
e 7 450 25 55
e 7 633 18 56
e 7 431 43 58
e 7 436 29 59
e 7 286 49 60
e 7 542 39 61
e 7 157 20 62
e 8 431 33 64
e 8 392 1 67
e 9 318 1 68
e 9 432 2 69
e 9 171 1 70
e 9 552 1 71
e 9 135 1 72
e 9 456 2 74
e 9 570 1 75
e 10 385 1 79
e 10 331 2 80
e 11 483 31 81
e 11 122 3 84
e 12 155 1 88
e 12 47 7 90
e 12 502 1 91
e 13 380 1 92
e 13 516 2 94
e 13 252 1 97
e 13 470 1 100
e 14 169 1 103
e 14 87 3 104
e 14 255 1 107
e 15 16 1 109
e 15 221 2 110
e 16 449 1 115
e 16 333 1 116
e 16 626 13 117
e 16 206 2 118
e 16 257 3 119
e 17 177 2 120
e 17 99 1 121
e 17 307 31 124
e 17 636 5 126
e 18 515 1 127
e 18 164 1 128
e 18 454 2 129
e 18 175 1 131
e 18 382 1 132
e 18 413 1 133
e 19 535 1 134
e 19 605 1 135
e 19 625 46 137
e 19 333 2 138
e 19 385 1 139
e 20 250 1 141
e 20 246 2 142
e 20 111 1 144
e 20 169 1 145
e 21 358 24 148
e 21 24 34 149
e 21 530 1 150
e 21 148 1 151
e 21 287 3 152
e 21 365 1 153
e 21 481 1 154
e 21 598 1 155
e 22 115 1 156
e 22 376 3 158
e 22 357 2 159
e 22 395 1 163
e 22 430 1 164
e 22 589 1 165
e 23 454 2 166
e 23 358 24 167
e 23 505 1 169
e 23 28 1 170
e 23 50 1 171
e 23 66 1 172
e 23 115 1 173
e 23 209 11 174
e 23 233 1 175
e 24 378 42 176
e 24 48 22 177
e 24 341 24 179
e 24 209 41 180
e 24 62 7 181
e 24 167 3 182
e 24 375 30 184
e 25 625 11 185
e 25 230 1 187
e 25 618 1 188
e 25 521 10 189
e 25 623 1 190
e 26 501 1 191
e 26 634 1 193
e 26 31 2 194
e 27 243 1 196
e 27 394 1 198
e 28 599 1 206
e 29 158 2 207
e 29 318 1 208
e 29 213 2 211
e 29 578 2 215
e 30 96 1 218
e 30 304 1 219
e 30 299 1 220
e 31 593 28 221
e 31 132 1 222
e 31 357 1 224
e 32 500 4 228
e 32 449 37 229
e 32 616 32 230
e 32 86 9 232
e 32 99 48 233
e 32 119 16 234
e 32 149 21 235
e 32 245 14 236
e 32 295 6 237
e 33 307 40 239
e 33 610 1 240
e 33 51 1 242
e 33 354 2 244
e 34 559 1 247
e 34 126 1 249
e 34 145 1 250
e 34 203 2 251
e 35 501 2 254
e 35 544 2 255
e 35 629 2 256
e 35 234 40 257
e 36 44 1 258
e 36 145 1 259
e 36 176 1 260
e 36 82 1 261
e 36 279 1 262
e 36 587 1 264
e 36 626 31 266
e 37 487 1 267
e 37 192 1 268
e 37 135 1 269
e 37 114 3 271
e 37 235 1 272
e 37 426 1 273
e 38 406 1 277
e 39 503 3 280
e 39 408 1 281
e 39 487 1 282
e 39 87 1 285
e 39 519 1 286
e 39 547 1 287
e 39 556 2 288
e 40 332 16 290
e 40 398 1 291
e 40 496 25 292
e 40 65 9 293
e 40 465 2 294
e 40 324 18 295
e 40 223 34 296
e 40 531 12 297
e 40 637 38 298
e 41 514 1 301
e 41 103 1 304
e 41 370 1 305
e 42 209 14 306
e 42 70 2 309
e 43 287 32 314
e 43 573 1 315
e 43 331 1 316
e 43 366 1 319
e 43 569 1 320
e 43 616 4 321
e 43 631 1 322
e 44 339 1 323
e 44 230 1 325
e 44 67 1 326
e 45 221 2 331
e 45 286 11 332
e 47 111 1 338
e 47 539 43 339
e 47 288 7 340
e 47 431 13 341
e 47 465 13 342
e 47 130 15 343
e 47 212 17 344
e 48 490 1 347
e 48 539 1 352
e 49 178 1 353
e 49 353 1 354
e 49 161 2 355
e 49 225 1 356
e 49 235 3 357
e 49 285 1 358
e 49 342 1 360
e 49 360 1 361
e 49 390 1 362
e 49 485 1 363
e 49 567 2 364
e 50 498 1 368
e 51 584 1 370
e 51 619 1 371
e 51 245 1 372
e 51 250 1 374
e 51 639 1 376
e 52 405 1 377
e 52 337 1 378
e 52 426 1 379
e 52 170 2 381
e 52 211 1 382
e 52 377 1 383
e 52 573 1 384
e 53 94 1 386
e 53 516 1 387
e 53 501 1 388
e 53 254 2 391
e 53 621 20 395
e 54 622 1 397
e 54 531 1 398
e 54 61 10 399
e 54 80 1 400
e 54 186 1 401
e 54 199 1 402
e 54 286 17 403
e 54 300 46 404
e 54 322 1 405
e 55 356 1 407
e 55 360 3 408
e 55 124 1 409
e 55 534 2 410
e 55 225 1 411
e 55 371 1 412
e 55 446 1 413
e 56 620 1 416
e 56 107 1 417
e 56 339 1 420
e 56 569 1 422
e 57 531 1 424
e 57 213 2 425
e 57 190 1 427
e 57 89 2 428
e 57 247 1 430
e 57 509 2 431
e 58 296 9 433
e 58 615 1 434
e 58 166 44 435
e 58 230 27 436
e 58 269 24 437
e 58 520 36 439
e 58 562 2 441
e 59 545 1 442
e 59 199 1 443
e 59 578 3 445
e 59 220 1 447
e 59 539 1 450
e 60 525 1 453
e 60 385 1 454
e 60 527 1 455
e 60 61 20 456
e 60 105 1 457
e 60 322 2 461
e 61 62 27 465
e 61 454 18 466
e 61 361 14 467
e 61 185 45 468
e 61 625 14 472
e 62 495 37 473
e 62 243 1 474
e 62 428 18 475
e 62 547 11 476
e 62 79 49 477
e 62 97 21 478
e 62 285 10 479
e 63 612 29 482
e 63 132 1 487
e 64 610 1 490
e 64 181 1 491
e 64 421 1 492
e 64 91 10 493
e 64 125 1 494
e 64 193 1 495
e 64 440 1 497
e 64 530 1 498
e 65 637 26 499
e 65 616 25 502
e 65 209 31 503
e 65 194 4 505
e 65 286 36 506
e 66 284 1 509
e 66 294 6 510
e 67 332 1 513
e 67 216 2 517
e 67 317 1 518
e 67 493 1 520
e 68 399 26 521
e 68 266 1 522
e 68 318 1 523
e 68 451 1 524
e 68 134 1 525
e 68 288 1 527
e 68 404 1 529
e 68 496 1 531
e 68 505 1 532
e 68 576 1 533
e 68 589 1 534
e 69 234 5 535
e 69 380 1 536
e 69 605 1 537
e 69 341 1 541
e 70 262 1 542
e 70 619 1 543
e 70 88 2 544
e 71 357 1 547
e 71 308 3 548
e 71 121 1 550
e 71 318 1 552
e 71 621 20 553
e 72 331 1 555
e 72 524 1 556
e 72 421 1 557
e 72 79 14 558
e 72 397 1 559
e 72 409 1 560
e 72 410 1 561
e 72 559 2 562
e 73 523 1 564
e 73 595 1 566
e 74 556 1 573
e 74 575 2 574
e 74 181 1 575
e 74 520 1 576
e 74 81 1 577
e 74 84 1 578
e 74 274 1 579
e 74 352 1 580
e 74 470 1 581
e 74 509 1 582
e 74 546 1 583
e 74 619 1 585
e 75 561 43 586
e 75 474 13 587
e 75 324 8 588
e 75 121 35 590
e 75 308 12 591
e 75 448 15 593
e 76 373 1 595
e 76 606 1 596
e 76 265 42 597
e 76 326 4 598
e 77 477 2 600
e 77 573 1 601
e 77 522 1 605
e 77 596 15 606
e 78 462 1 611
e 79 499 40 612
e 79 227 16 614
e 79 340 29 615
e 79 462 9 618
e 79 528 40 619
e 79 564 6 621
e 80 213 2 622
e 80 562 2 623
e 80 633 1 624
e 80 312 1 625
e 80 375 2 626
e 80 448 1 627
e 81 198 1 628
e 81 447 1 630
e 81 234 17 631
e 81 499 1 632
e 81 584 1 633
e 81 597 2 634
e 82 609 1 635
e 82 255 1 636
e 83 411 1 641
e 83 177 1 644
e 83 350 1 646
e 83 410 1 647
e 83 420 1 648
e 84 341 1 650
e 84 97 39 652
e 85 605 1 654
e 85 430 1 655
e 85 203 2 656
e 85 399 12 657
e 86 111 1 663
e 86 100 1 665
e 87 502 1 668
e 87 470 1 669
e 87 473 1 672
e 88 565 2 674
e 88 155 2 675
e 88 264 8 677
e 89 247 1 680
e 89 512 2 681
e 89 586 1 682
e 89 119 2 683
e 89 416 1 684
e 90 115 1 687
e 90 600 1 690
e 91 364 7 691
e 91 626 40 692
e 91 596 44 694
e 91 151 33 695
e 91 142 48 696
e 91 240 39 697
e 91 388 17 698
e 92 110 7 704
e 92 214 2 705
e 93 578 1 707
e 93 365 1 708
e 93 573 1 710
e 94 265 20 711
e 94 179 1 713
e 94 560 1 714
e 94 157 1 715
e 94 191 1 716
e 94 238 2 717
e 94 251 17 718
e 95 502 1 719
e 95 402 1 720
e 95 190 1 723
e 95 291 1 724
e 95 394 1 726
e 96 583 1 729
e 96 225 1 730
e 96 196 2 731
e 96 268 1 733
e 96 280 1 734
e 96 562 1 735
e 96 594 1 736
e 97 287 20 737
e 97 556 18 738
e 97 387 2 740
e 97 116 28 741
e 97 186 22 742
e 97 406 4 743
e 97 602 28 744
e 98 250 2 748
e 98 320 1 749
e 99 203 1 750
e 99 293 1 751
e 99 204 1 752
e 99 418 1 754
e 99 441 1 755
e 99 612 21 756
e 100 637 1 757
e 100 539 1 758
e 100 177 3 760
e 100 271 12 761
e 101 527 1 763
e 101 452 1 766
e 102 165 8 771
e 102 146 47 773
e 102 175 32 774
e 102 273 35 775
e 102 390 46 776
e 102 436 8 777
e 103 433 1 781
e 103 597 2 782
e 103 447 1 783
e 103 556 1 784
e 103 601 1 785
e 104 487 1 787
e 104 289 1 791
e 104 338 1 792
e 105 535 1 796
e 105 292 2 797
e 105 306 2 798
e 105 379 2 799
e 106 113 1 800
e 106 195 1 803
e 106 269 1 804
e 106 609 1 809
e 107 607 49 810
e 107 435 2 811
e 107 260 1 812
e 107 109 1 813
e 107 326 36 814
e 108 425 1 816
e 108 272 1 817
e 108 292 1 818
e 108 115 2 819
e 108 617 1 822
e 109 350 2 824
e 109 462 2 825
e 109 455 1 826
e 109 608 1 827
e 110 299 11 828
e 110 597 1 829
e 110 346 29 830
e 110 140 5 831
e 110 230 36 832
e 110 392 1 833
e 110 620 7 835
e 111 245 1 837
e 111 349 1 838
e 111 191 1 839
e 111 210 1 840
e 111 376 1 841
e 112 332 2 843
e 112 275 41 844
e 112 255 1 847
e 112 617 3 848
e 113 413 1 849
e 113 604 1 850
e 113 618 1 851
e 113 389 5 852
e 113 318 1 853
e 113 374 1 854
e 114 348 1 857
e 114 395 1 858
e 114 120 1 859
e 114 220 1 860
e 114 411 2 861
e 115 247 1 862
e 115 203 1 863
e 115 606 1 864
e 116 599 14 865
e 116 167 19 869
e 116 172 39 870
e 116 632 30 873
e 117 502 1 875
e 117 280 1 876
e 117 475 1 877
e 117 220 1 878
e 117 337 1 879
e 117 567 1 881
e 118 255 1 884
e 118 636 15 885
e 118 595 1 886
e 118 204 1 887
e 118 335 1 888
e 118 546 2 889
e 119 231 1 892
e 120 480 1 893
e 120 253 1 895
e 121 473 1 899
e 121 155 1 900
e 121 270 1 901
e 121 346 1 902
e 121 501 2 903
e 121 524 1 904
e 121 529 2 905
e 121 619 1 906
e 122 608 1 908
e 122 368 1 909
e 122 238 2 910
e 122 453 1 911
e 122 592 1 912
e 122 601 2 913
e 123 390 1 916
e 124 377 1 917
e 124 279 1 919
e 124 413 3 920
e 124 156 1 921
e 124 615 1 923
e 125 523 1 927
e 126 266 1 928
e 126 331 1 929
e 126 509 1 930
e 127 284 1 931
e 127 411 1 933
e 127 627 1 934
e 127 414 1 936
e 127 550 1 937
e 128 631 1 938
e 128 214 1 939
e 128 475 1 943
e 129 221 1 945
e 129 320 1 946
e 130 243 1 952
e 130 349 2 953
e 131 206 31 957
e 131 394 28 959
e 131 150 27 960
e 131 204 13 961
e 131 226 40 962
e 131 326 28 963
e 131 361 24 964
e 131 449 15 965
e 132 236 2 966
e 132 162 1 967
e 132 595 1 969
e 133 569 1 970
e 133 265 15 973
e 134 443 1 976
e 135 398 1 980
e 136 427 1 985
e 136 437 1 989
e 137 349 1 991
e 138 260 1 1000
e 138 336 1 1001
e 138 573 1 1003
e 138 628 1 1004
e 139 300 48 1006
e 139 155 1 1008
e 139 591 2 1009
e 140 504 19 1011
e 140 251 24 1014
e 140 286 11 1015
e 140 358 45 1016
e 140 287 42 1017
e 140 330 47 1018
e 141 525 15 1019
e 141 387 49 1020
e 141 320 44 1021
e 141 499 24 1022
e 141 358 34 1023
e 141 364 34 1024
e 141 621 48 1026
e 142 529 2 1028
e 143 568 1 1032
e 143 168 1 1035
e 144 516 2 1038
e 145 540 1 1043
e 145 468 1 1044
e 146 366 2 1045
e 146 339 1 1046
e 146 334 1 1049
e 146 388 23 1051
e 146 480 1 1053
e 146 636 26 1055
e 147 535 1 1056
e 147 279 1 1058
e 147 624 2 1059
e 148 330 16 1060
e 148 571 1 1061
e 148 254 1 1062
e 149 333 1 1064
e 149 209 35 1065
e 150 461 2 1067
e 150 524 2 1068
e 150 343 2 1069
e 150 389 15 1071
e 150 529 1 1072
e 150 540 1 1073
e 150 627 1 1074
e 151 360 46 1076
e 151 546 13 1077
e 151 351 44 1079
e 151 548 23 1081
e 151 628 28 1082
e 152 375 1 1089
e 153 501 3 1093
e 153 206 1 1095
e 154 318 1 1098
e 154 274 1 1099
e 155 271 41 1101
e 155 202 2 1102
e 155 229 1 1103
e 155 162 1 1104
e 155 190 1 1105
e 155 245 1 1106
e 155 578 3 1107
e 156 588 1 1108
e 156 609 2 1110
e 156 438 1 1111
e 156 443 2 1112
e 156 505 2 1113
e 156 578 2 1114
e 157 420 1 1116
e 157 221 3 1117
e 157 374 1 1120
e 158 343 2 1123
e 158 315 2 1124
e 158 285 2 1125
e 159 180 2 1128
e 160 563 8 1132
e 160 184 7 1134
e 160 218 33 1135
e 160 239 1 1136
e 160 378 2 1137
e 160 434 29 1138
e 161 494 3 1139
e 161 516 1 1140
e 161 211 1 1141
e 162 533 2 1147
e 163 241 29 1152
e 163 358 1 1153
e 163 172 44 1155
e 163 599 1 1159
e 164 225 1 1163
e 164 412 1 1165
e 164 538 1 1167
e 165 475 1 1169
e 165 236 2 1171
e 165 341 2 1172
e 166 246 1 1177
e 166 541 2 1179
e 167 638 1 1181
e 167 369 2 1183
e 167 498 1 1185
e 167 549 1 1187
e 168 226 1 1188
e 168 503 25 1189
e 168 173 1 1190
e 169 611 1 1191
e 169 313 1 1192
e 169 335 2 1193
e 169 242 1 1194
e 169 388 35 1195
e 169 439 1 1196
e 170 608 1 1199
e 170 462 2 1201
e 170 506 34 1202
e 171 190 1 1207
e 171 630 32 1208
e 171 439 2 1209
e 171 457 1 1210
e 171 613 1 1214
e 172 562 27 1217
e 172 387 6 1218
e 172 596 4 1219
e 172 232 2 1220
e 172 271 22 1221
e 173 221 1 1223
e 173 600 2 1225
e 173 205 2 1226
e 173 224 1 1227
e 173 244 2 1228
e 173 413 1 1229
e 173 519 2 1230
e 174 401 32 1231
e 174 293 20 1233
e 174 189 35 1235
e 174 335 21 1236
e 174 607 6 1238
e 175 260 1 1239
e 175 429 1 1240
e 175 484 1 1241
e 175 601 1 1242
e 176 498 1 1245
e 176 254 1 1246
e 177 533 1 1247
e 177 311 2 1250
e 177 581 1 1252
e 178 321 1 1255
e 178 521 25 1256
e 178 477 1 1257
e 178 514 2 1258
e 178 581 2 1260
e 179 437 1 1261
e 179 220 1 1262
e 179 211 1 1263
e 179 591 1 1265
e 180 627 2 1266
e 180 194 1 1267
e 180 535 1 1268
e 180 449 1 1269
e 180 253 2 1271
e 180 508 2 1272
e 180 622 1 1273
e 181 631 1 1274
e 181 394 1 1275
e 181 556 1 1277
e 181 310 1 1278
e 181 404 1 1279
e 181 558 2 1280
e 181 628 1 1281
e 182 564 1 1282
e 182 381 1 1283
e 182 535 1 1284
e 182 374 1 1285
e 182 194 1 1286
e 183 265 14 1289
e 183 501 1 1292
e 184 326 1 1294
e 184 203 1 1297
e 184 576 1 1298
e 185 344 12 1299
e 185 404 24 1300
e 185 422 48 1302
e 185 596 9 1303
e 185 202 10 1304
e 185 476 2 1305
e 185 637 37 1306
e 186 423 1 1308
e 186 521 23 1309
e 186 535 1 1310
e 186 593 11 1311
e 187 523 1 1313
e 187 221 3 1315
e 188 318 49 1320
e 188 596 12 1322
e 188 467 43 1323
e 188 254 26 1324
e 188 319 32 1325
e 188 506 35 1327
e 189 212 6 1329
e 189 194 14 1330
e 189 264 21 1331
e 189 467 33 1332
e 189 620 2 1333
e 189 630 11 1334
e 190 548 2 1336
e 190 340 2 1337
e 191 571 1 1339
e 191 457 1 1340
e 192 509 1 1341
e 192 472 2 1342
e 192 545 1 1343
e 193 608 1 1349
e 195 247 3 1352
e 195 506 7 1353
e 195 361 2 1354
e 195 402 2 1355
e 195 445 1 1356
e 195 597 1 1358
e 196 356 1 1359
e 196 433 1 1360
e 196 207 2 1363
e 196 464 2 1364
e 196 566 1 1365
e 197 480 1 1366
e 197 589 1 1368
e 197 613 1 1369
e 198 353 1 1371
e 198 475 1 1373
e 199 479 1 1374
e 199 404 1 1376
e 199 364 17 1377
e 200 459 2 1378
e 200 503 35 1380
e 200 609 1 1381
e 200 217 1 1382
e 200 524 1 1384
e 201 397 1 1386
e 201 545 2 1387
e 201 456 1 1389
e 202 599 1 1392
e 202 539 2 1393
e 202 236 1 1394
e 203 619 1 1397
e 203 293 2 1398
e 203 408 2 1399
e 203 469 2 1400
e 203 530 1 1402
e 203 533 2 1403
e 203 574 1 1404
e 204 452 1 1406
e 204 360 1 1407
e 204 592 1 1408
e 205 320 1 1410
e 205 628 1 1411
e 205 268 1 1412
e 206 610 2 1414
e 206 536 1 1415
e 206 273 1 1416
e 208 620 1 1423
e 208 554 1 1427
e 209 330 22 1431
e 209 407 35 1432
e 210 455 1 1433
e 210 331 1 1436
e 210 609 2 1441
e 211 372 1 1442
e 211 251 8 1443
e 211 273 1 1444
e 211 276 1 1445
e 211 468 1 1446
e 211 479 1 1447
e 211 529 1 1448
e 211 565 1 1449
e 212 553 26 1451
e 212 518 48 1452
e 212 301 38 1453
e 212 506 29 1454
e 212 607 30 1455
e 212 287 30 1456
e 212 326 23 1457
e 213 234 4 1458
e 213 219 2 1460
e 213 485 1 1461
e 213 566 1 1462
e 214 265 2 1463
e 214 541 2 1464
e 214 627 1 1465
e 215 582 1 1467
e 215 497 1 1468
e 215 541 1 1470
e 216 246 1 1471
e 216 321 2 1472
e 216 279 1 1474
e 216 460 1 1475
e 216 585 2 1476
e 217 547 1 1478
e 217 359 1 1479
e 217 420 2 1480
e 217 580 2 1481
e 218 523 1 1485
e 219 495 2 1486
e 219 472 33 1488
e 219 565 1 1489
e 220 254 1 1490
e 220 492 2 1491
e 221 519 1 1492
e 221 350 1 1493
e 221 329 2 1494
e 221 319 1 1495
e 221 398 1 1496
e 221 474 1 1497
e 222 450 1 1499
e 223 237 26 1501
e 223 499 32 1502
e 223 410 14 1503
e 223 282 8 1504
e 223 300 17 1505
e 224 609 1 1508
e 225 483 18 1511
e 225 250 1 1512
e 225 523 1 1513
e 225 559 2 1514
e 225 639 1 1515
e 226 535 1 1517
e 226 552 1 1518
e 226 630 32 1519
e 228 349 1 1530
e 228 417 48 1532
e 229 421 1 1536
e 230 231 1 1540
e 230 631 1 1541
e 231 286 12 1542
e 231 538 1 1543
e 231 556 1 1544
e 231 469 2 1546
e 231 480 1 1547
e 232 612 15 1549
e 232 475 1 1550
e 232 350 1 1551
e 232 321 1 1552
e 233 404 1 1557
e 234 569 9 1560
e 234 541 22 1561
e 234 299 30 1562
e 234 393 32 1564
e 234 408 7 1565
e 234 515 15 1566
e 235 582 2 1567
e 235 342 1 1568
e 235 522 1 1569
e 236 255 1 1570
e 236 601 2 1572
e 237 402 1 1575
e 237 274 1 1576
e 238 593 2 1578
e 239 322 1 1583
e 239 537 1 1584
e 240 286 6 1587
e 241 471 11 1591
e 241 387 24 1594
e 241 467 15 1595
e 241 542 28 1596
e 241 327 14 1597
e 241 380 9 1598
e 242 437 1 1601
e 242 517 16 1602
e 242 600 2 1604
e 243 254 1 1605
e 243 503 24 1606
e 243 297 1 1607
e 243 387 40 1608
e 244 289 1 1609
e 244 319 1 1610
e 244 337 1 1611
e 244 376 1 1613
e 245 612 7 1615
e 246 498 2 1616
e 246 637 1 1617
e 246 395 2 1618
e 246 579 2 1619
e 247 591 1 1620
e 247 495 2 1621
e 247 599 1 1622
e 247 365 2 1623
e 249 279 1 1629
e 249 512 1 1630
e 249 438 1 1631
e 249 555 1 1632
e 249 401 1 1633
e 249 415 1 1634
e 249 486 1 1635
e 250 363 2 1638
e 250 421 2 1639
e 250 429 1 1640
e 251 537 27 1641
e 251 330 43 1644
e 251 512 21 1646
e 251 625 32 1647
e 252 387 44 1648
e 252 584 1 1650
e 252 354 2 1651
e 252 577 1 1652
e 253 578 1 1653
e 253 490 1 1654
e 253 479 1 1655
e 253 272 1 1656
e 253 557 1 1658
e 254 638 2 1659
e 254 623 1 1660
e 254 326 37 1661
e 254 373 1 1662
e 254 407 2 1663
e 254 562 1 1664
e 254 568 1 1665
e 255 539 1 1666
e 255 345 1 1667
e 255 384 1 1668
e 255 585 1 1670
e 256 498 1 1671
e 256 605 1 1672
e 256 506 18 1674
e 257 605 1 1675
e 257 503 42 1676
e 257 259 1 1677
e 258 386 1 1679
e 259 374 1 1681
e 259 405 1 1682
e 259 396 1 1683
e 260 585 1 1684
e 260 614 1 1685
e 260 619 1 1686
e 260 357 2 1687
e 260 358 37 1688
e 260 624 1 1689
e 260 637 1 1690
e 261 586 1 1695
e 262 615 2 1696
e 262 406 2 1697
e 262 359 2 1699
e 262 323 1 1700
e 262 351 2 1701
e 262 454 1 1702
e 263 509 1 1703
e 263 436 10 1704
e 263 334 2 1705
e 263 321 2 1707
e 263 385 2 1708
e 264 356 37 1709
e 264 467 39 1710
e 264 472 6 1711
e 264 596 11 1712
e 264 388 41 1713
e 264 389 1 1714
e 264 476 41 1715
e 265 510 3 1717
e 265 402 37 1718
e 265 338 22 1719
e 265 605 21 1720
e 265 493 3 1721
e 265 630 17 1722
e 266 492 1 1723
e 266 500 1 1724
e 266 333 2 1726
e 267 451 1 1727
e 267 502 1 1729
e 267 533 2 1730
e 267 537 1 1731
e 267 610 1 1732
e 267 631 1 1733
e 268 459 1 1734
e 268 458 1 1735
e 269 466 2 1739
e 270 634 1 1740
e 270 606 1 1741
e 270 290 1 1743
e 271 621 28 1749
e 271 494 1 1750
e 271 592 15 1751
e 271 637 18 1752
e 272 385 1 1753
e 272 480 1 1754
e 273 595 2 1760
e 273 398 3 1763
e 274 495 1 1764
e 274 488 1 1765
e 274 291 2 1766
e 274 351 2 1767
e 275 534 31 1769
e 275 579 1 1770
e 275 629 37 1772
e 275 324 23 1773
e 275 319 18 1774
e 275 342 46 1775
e 275 515 9 1776
e 275 517 47 1777
e 276 583 1 1779
e 277 364 16 1783
e 277 613 1 1784
e 277 625 5 1789
e 278 514 2 1793
e 278 593 23 1794
e 278 595 2 1795
e 279 637 1 1796
e 279 352 1 1797
e 279 518 1 1799
e 280 448 2 1800
e 280 627 2 1802
e 280 316 1 1803
e 280 343 2 1804
e 280 598 2 1805
e 281 333 1 1807
e 281 488 1 1808
e 282 591 1 1812
e 282 470 3 1813
e 282 627 2 1814
e 283 402 1 1815
e 283 478 1 1816
e 283 502 2 1817
e 283 362 1 1818
e 284 383 3 1819
e 284 343 1 1820
e 284 434 1 1821
e 284 489 1 1822
e 285 464 2 1823
e 285 517 22 1825
e 285 550 1 1826
e 286 378 16 1827
e 286 308 3 1828
e 286 473 16 1829
e 287 392 32 1831
e 287 401 15 1832
e 287 625 29 1833
e 288 327 1 1835
e 288 580 1 1837
e 288 581 1 1838
e 289 369 2 1840
e 289 301 23 1841
e 289 563 1 1842
e 290 542 19 1843
e 290 537 1 1844
e 290 620 1 1845
e 290 605 1 1847
e 291 342 2 1848
e 291 473 2 1849
e 291 346 2 1850
e 293 353 1 1856
e 293 434 1 1857
e 293 360 1 1858
e 293 609 3 1859
e 294 568 43 1860
e 294 406 9 1861
e 294 467 10 1862
e 294 327 1 1863
e 294 308 47 1864
e 294 547 2 1865
e 294 564 14 1866
e 295 522 1 1868
e 295 358 30 1869
e 295 437 3 1873
e 296 511 8 1879
e 296 300 28 1880
e 296 387 46 1881
e 296 512 31 1882
e 296 572 17 1883
e 297 350 2 1886
e 298 554 1 1889
e 299 542 3 1892
e 299 581 1 1894
e 300 592 16 1896
e 300 492 2 1898
e 300 607 35 1899
e 300 452 16 1900
e 301 475 37 1901
e 301 468 1 1902
e 301 329 43 1904
e 301 382 31 1905
e 302 625 11 1906
e 302 638 1 1907
e 302 337 2 1908
e 303 502 1 1910
e 303 430 1 1911
e 303 495 1 1912
e 305 411 1 1921
e 305 333 1 1922
e 305 307 18 1924
e 306 317 1 1925
e 307 487 14 1927
e 307 379 28 1928
e 307 374 49 1930
e 307 421 3 1931
e 307 435 39 1932
e 307 452 5 1933
e 307 496 3 1934
e 308 587 5 1937
e 308 374 20 1938
e 308 396 10 1939
e 311 436 7 1945
e 312 407 1 1948
e 312 430 1 1949
e 312 505 1 1950
e 313 525 1 1954
e 314 540 1 1955
e 314 389 22 1956
e 315 549 1 1957
e 315 539 1 1958
e 315 418 1 1959
e 315 338 1 1960
e 315 379 1 1961
e 315 527 1 1962
e 317 509 2 1966
e 317 438 1 1967
e 317 363 2 1968
e 317 556 2 1969
e 318 596 45 1970
e 318 491 1 1971
e 318 544 1 1972
e 319 614 1 1973
e 320 417 41 1974
e 320 419 1 1976
e 320 526 1 1977
e 321 338 2 1980
e 322 393 2 1981
e 322 324 12 1982
e 322 525 1 1983
e 323 560 1 1984
e 323 586 1 1986
e 324 474 38 1989
e 324 397 27 1990
e 324 519 18 1991
e 324 540 5 1992
e 324 568 22 1993
e 325 405 1 1995
e 325 333 1 1996
e 326 338 25 2000
e 326 607 14 2001
e 327 360 12 2002
e 327 446 36 2003
e 327 490 3 2004
e 328 436 24 2008
e 328 372 1 2009
e 328 418 1 2010
e 328 427 1 2011
e 328 450 3 2012
e 328 495 2 2013
e 329 567 1 2016
e 330 534 21 2018
e 330 422 37 2021
e 330 541 36 2022
e 331 629 2 2023
e 331 588 1 2025
e 332 358 40 2026
e 332 586 1 2027
e 332 562 1 2028
e 332 398 1 2029
e 332 382 1 2030
e 332 423 1 2031
e 332 576 1 2032
e 333 340 1 2033
e 333 464 2 2034
e 333 381 1 2035
e 334 565 1 2036
e 334 471 1 2037
e 334 404 1 2038
e 334 629 1 2039
e 335 370 2 2040
e 335 488 1 2041
e 336 353 1 2042
e 336 372 1 2043
e 336 495 1 2044
e 336 587 2 2046
e 337 404 1 2047
e 337 417 13 2048
e 337 366 2 2049
e 337 400 1 2050
e 337 428 1 2051
e 337 600 1 2054
e 337 638 1 2055
e 338 541 1 2056
e 339 479 1 2057
e 339 547 1 2058
e 339 534 1 2060
e 340 568 1 2063
e 341 548 1 2065
e 341 538 1 2066
e 341 440 1 2067
e 342 577 1 2069
e 343 613 2 2070
e 343 555 1 2071
e 343 344 1 2072
e 343 534 1 2073
e 344 394 1 2074
e 344 445 1 2075
e 344 596 1 2076
e 345 545 2 2079
e 345 525 1 2081
e 346 370 1 2086
e 346 379 1 2087
e 347 370 1 2090
e 348 427 1 2093
e 348 349 1 2095
e 350 624 2 2099
e 351 429 1 2101
e 351 375 1 2102
e 351 405 1 2103
e 351 412 1 2104
e 352 477 3 2105
e 352 488 1 2106
e 352 613 1 2108
e 353 622 2 2109
e 353 442 1 2110
e 353 380 1 2111
e 353 450 1 2112
e 353 487 1 2114
e 353 531 2 2115
e 354 485 2 2116
e 354 626 5 2117
e 355 499 1 2118
e 355 356 1 2119
e 355 404 1 2120
e 355 465 12 2121
e 356 392 1 2122
e 356 450 1 2125
e 356 506 32 2127
e 357 404 1 2129
e 357 402 1 2130
e 358 472 16 2131
e 359 569 1 2133
e 359 505 1 2134
e 359 627 2 2137
e 360 467 1 2140
e 361 364 32 2142
e 361 397 1 2143
e 361 387 15 2145
e 361 394 1 2146
e 361 550 1 2147
e 362 458 1 2149
e 362 409 1 2150
e 362 398 1 2151
e 362 626 20 2152
e 363 472 38 2153
e 364 525 1 2155
e 364 389 5 2156
e 364 491 49 2157
e 364 618 49 2158
e 365 403 1 2160
e 365 368 1 2161
e 365 427 1 2162
e 365 529 1 2163
e 366 476 19 2164
e 366 404 1 2165
e 366 605 1 2167
e 367 489 1 2169
e 368 564 1 2172
e 368 455 1 2173
e 369 510 1 2177
e 369 459 3 2178
e 369 540 2 2179
e 369 605 1 2180
e 370 464 2 2181
e 370 423 2 2182
e 370 553 2 2183
e 371 389 9 2184
e 371 613 1 2185
e 371 428 1 2186
e 371 516 1 2187
e 372 421 1 2189
e 372 442 1 2190
e 372 435 2 2193
e 372 630 2 2195
e 374 388 13 2197
e 374 611 1 2199
e 375 383 1 2200
e 375 422 18 2201
e 376 498 2 2202
e 376 447 1 2203
e 377 502 2 2204
e 377 565 1 2205
e 377 507 1 2206
e 378 422 17 2207
e 379 484 1 2210
e 380 483 40 2211
e 380 601 1 2213
e 380 546 1 2214
e 382 631 1 2218
e 383 620 1 2223
e 385 541 1 2224
e 385 558 1 2225
e 386 559 1 2226
e 386 521 7 2227
e 387 463 16 2228
e 387 525 10 2229
e 388 397 11 2230
e 388 616 12 2232
e 389 544 49 2234
e 389 450 9 2235
e 390 409 1 2237
e 390 541 1 2238
e 390 434 1 2239
e 390 495 1 2240
e 391 622 1 2242
e 392 441 1 2243
e 392 486 1 2244
e 392 586 1 2245
e 393 533 1 2248
e 393 506 38 2249
e 395 458 1 2251
e 395 432 1 2252
e 395 513 1 2253
e 395 557 2 2254
e 397 541 1 2256
e 397 598 1 2257
e 397 513 1 2258
e 398 619 1 2259
e 398 479 1 2260
e 398 605 1 2262
e 398 631 2 2263
e 399 636 16 2264
e 399 595 21 2265
e 399 517 2 2266
e 400 599 1 2268
e 402 540 1 2272
e 404 500 2 2275
e 405 599 1 2276
e 405 434 1 2277
e 405 543 1 2278
e 406 491 1 2279
e 406 560 1 2280
e 407 414 1 2281
e 407 583 1 2282
e 408 580 1 2283
e 408 527 1 2284
e 409 513 1 2285
e 409 629 1 2287
e 409 533 1 2288
e 410 435 2 2289
e 411 512 2 2290
e 411 569 1 2291
e 411 519 1 2293
e 411 639 2 2294
e 412 606 1 2295
e 412 461 2 2296
e 412 503 19 2297
e 412 517 21 2298
e 413 415 2 2300
e 413 538 1 2302
e 413 539 2 2303
e 413 624 3 2304
e 413 632 1 2305
e 414 603 2 2306
e 414 527 2 2307
e 414 490 1 2308
e 414 502 1 2309
e 414 575 1 2310
e 415 554 2 2311
e 416 456 1 2314
e 417 468 3 2315
e 417 584 25 2316
e 417 469 5 2317
e 417 476 11 2318
e 417 488 43 2319
e 417 544 11 2320
e 418 547 1 2322
e 418 438 1 2324
e 418 465 25 2325
e 419 569 1 2326
e 420 546 2 2329
e 420 428 2 2330
e 420 545 1 2331
e 421 585 1 2332
e 422 570 31 2333
e 422 455 44 2335
e 423 530 2 2337
e 423 430 1 2338
e 423 515 2 2339
e 424 461 3 2342
e 424 472 8 2343
e 424 477 1 2344
e 425 600 1 2348
e 425 477 1 2349
e 427 434 1 2350
e 427 570 1 2351
e 427 620 1 2352
e 429 554 1 2355
e 430 593 40 2356
e 430 560 1 2358
e 431 503 29 2359
e 431 635 32 2361
e 431 476 26 2362
e 431 549 1 2363
e 431 602 41 2364
e 432 459 3 2365
e 432 533 1 2367
e 433 501 1 2368
e 436 616 20 2372
e 437 556 3 2373
e 439 498 1 2376
e 439 567 1 2377
e 439 630 6 2378
e 441 445 1 2382
e 441 514 1 2383
e 441 595 1 2385
e 442 459 1 2386
e 443 615 1 2393
e 443 636 17 2394
e 443 509 1 2395
e 444 522 1 2398
e 444 554 2 2401
e 446 634 1 2404
e 447 615 1 2406
e 448 490 1 2407
e 449 605 1 2409
e 450 626 9 2410
e 451 518 2 2411
e 451 570 1 2412
e 451 489 1 2413
e 453 487 2 2415
e 453 495 1 2416
e 455 602 40 2419
e 455 483 1 2420
e 455 610 1 2421
e 456 590 1 2422
e 457 593 34 2423
e 457 517 36 2424
e 457 542 6 2425
e 459 520 1 2427
e 459 464 1 2428
e 459 620 1 2429
e 460 559 3 2431
e 460 550 1 2432
e 461 557 2 2433
e 461 487 1 2434
e 461 504 1 2435
e 461 568 1 2436
e 462 528 1 2438
e 464 607 2 2440
e 465 466 26 2442
e 465 506 10 2443
e 465 508 8 2445
e 466 569 1 2446
e 466 467 48 2449
e 467 517 5 2452
e 467 584 7 2453
e 468 621 7 2454
e 470 500 2 2455
e 471 539 1 2456
e 471 490 1 2457
e 472 624 11 2458
e 472 621 47 2459
e 472 626 43 2460
e 475 512 1 2464
e 475 576 1 2465
e 476 505 40 2467
e 476 636 17 2468
e 476 626 15 2469
e 480 518 1 2471
e 480 606 1 2472
e 480 607 43 2473
e 482 573 1 2475
e 483 637 19 2476
e 483 579 14 2477
e 486 617 2 2481
e 490 499 1 2484
e 490 601 1 2485
e 491 515 1 2486
e 491 524 1 2487
e 491 494 29 2488
e 493 547 1 2491
e 493 577 3 2492
e 494 537 12 2493
e 496 545 1 2496
e 497 539 1 2498
e 497 527 1 2499
e 497 613 1 2500
e 498 599 1 2501
e 500 624 2 2505
e 500 531 2 2506
e 500 583 2 2508
e 501 555 1 2509
e 501 504 1 2510
e 501 560 2 2511
e 502 590 1 2512
e 503 570 2 2515
e 504 514 1 2516
e 504 615 1 2518
e 505 615 1 2520
e 505 571 1 2521
e 509 591 1 2524
e 511 627 3 2526
e 512 610 1 2527
e 513 539 1 2528
e 513 617 1 2529
e 516 604 2 2530
e 516 603 2 2531
e 517 542 41 2532
e 517 582 25 2533
e 518 550 2 2534
e 521 567 2 2536
e 521 616 15 2537
e 522 544 1 2539
e 522 571 1 2540
e 523 560 1 2541
e 524 638 2 2542
e 526 615 1 2544
e 526 599 1 2546
e 527 634 1 2547
e 530 582 1 2548
e 531 618 2 2549
e 531 550 1 2550
e 536 609 2 2554
e 537 584 1 2556
e 537 616 9 2557
e 537 634 1 2558
e 538 629 1 2559
e 538 561 1 2560
e 538 554 2 2561
e 538 608 1 2562
e 539 552 1 2563
e 539 622 1 2564
e 541 623 1 2565
e 544 606 1 2568
e 545 615 2 2569
e 545 564 2 2570
e 549 635 2 2574
e 549 575 1 2575
e 551 595 1 2577
e 551 596 40 2578
e 553 621 43 2581
e 557 627 2 2583
e 558 616 45 2585
e 559 565 1 2588
e 560 607 28 2589
e 561 599 2 2590
e 563 591 2 2591
e 565 637 1 2592
e 565 625 45 2593
e 566 608 1 2594
e 567 577 1 2595
e 567 634 1 2596
e 569 594 1 2597
e 569 635 2 2598
e 573 584 1 2599
e 580 593 12 2602
e 582 593 30 2603
e 583 600 1 2604
e 585 615 1 2606
e 587 606 1 2608
e 590 593 25 2610
e 593 600 46 2611
e 598 634 1 2613
e 599 614 1 2614
e 599 634 1 2615
e 602 608 20 2616
e 604 612 45 2617
e 604 608 2 2618
e 607 621 21 2619
e 616 630 9 2620
e 617 638 1 2621
e 624 638 2 2622
